numero_plantas = 3;
numero_clientes = 1; 
numero_dias = 1;
costos = [30.0, 20.0, 40.0];
capacidades = [100.0, 50.0, 50.0]; 
G = 50;
demanda = [| 500.0 |];  
pagos = [100.0];
porcentaje_regimen_alto = [80.0, 80.0, 80.0];
max_dias_consecutivos_regimen = [2, 2, 2];